c graph converted from Delauney Triangulation format
c weights on edges removed (lost)
x low 0.00
p edge 100 286
n 0 1.00
n 14 1.00
n 59 1.00
n 70 1.00
n 61 1.00
n 17 1.00
n 1 1.00
n 34 1.00
n 95 1.00
n 22 1.00
n 88 1.00
n 2 1.00
n 63 1.00
n 98 1.00
n 78 1.00
n 9 1.00
n 32 1.00
n 12 1.00
n 48 1.00
n 3 1.00
n 77 1.00
n 74 1.00
n 31 1.00
n 81 1.00
n 4 1.00
n 21 1.00
n 60 1.00
n 10 1.00
n 80 1.00
n 35 1.00
n 90 1.00
n 5 1.00
n 52 1.00
n 93 1.00
n 94 1.00
n 27 1.00
n 26 1.00
n 6 1.00
n 41 1.00
n 39 1.00
n 33 1.00
n 40 1.00
n 7 1.00
n 89 1.00
n 68 1.00
n 67 1.00
n 8 1.00
n 25 1.00
n 11 1.00
n 16 1.00
n 71 1.00
n 69 1.00
n 38 1.00
n 99 1.00
n 51 1.00
n 84 1.00
n 13 1.00
n 86 1.00
n 66 1.00
n 20 1.00
n 85 1.00
n 62 1.00
n 15 1.00
n 30 1.00
n 44 1.00
n 65 1.00
n 97 1.00
n 56 1.00
n 37 1.00
n 72 1.00
n 91 1.00
n 73 1.00
n 18 1.00
n 55 1.00
n 36 1.00
n 45 1.00
n 92 1.00
n 53 1.00
n 19 1.00
n 29 1.00
n 43 1.00
n 83 1.00
n 23 1.00
n 24 1.00
n 42 1.00
n 47 1.00
n 54 1.00
n 76 1.00
n 28 1.00
n 79 1.00
n 87 1.00
n 46 1.00
n 49 1.00
n 64 1.00
n 82 1.00
n 50 1.00
n 57 1.00
n 75 1.00
n 58 1.00
n 96 1.00
e 0 14
e 0 59
e 0 70
e 0 61
e 0 17
e 1 34
e 1 95
e 1 22
e 1 88
e 2 63
e 2 98
e 2 78
e 2 9
e 2 32
e 2 12
e 2 48
e 2 3
e 2 77
e 3 48
e 3 74
e 3 77
e 3 31
e 3 81
e 4 21
e 4 60
e 4 10
e 4 80
e 4 35
e 4 90
e 5 52
e 5 93
e 5 94
e 5 78
e 5 27
e 5 26
e 6 41
e 6 39
e 6 33
e 6 40
e 7 89
e 7 68
e 7 67
e 7 70
e 7 59
e 8 77
e 8 25
e 8 31
e 8 11
e 8 16
e 8 71
e 8 69
e 9 78
e 9 26
e 9 32
e 10 33
e 10 38
e 10 99
e 10 60
e 10 51
e 10 35
e 11 31
e 11 84
e 11 13
e 11 86
e 11 69
e 12 90
e 12 63
e 12 68
e 12 66
e 12 48
e 13 20
e 13 84
e 13 85
e 13 86
e 14 62
e 14 66
e 14 68
e 14 59
e 14 85
e 14 61
e 14 86
e 15 30
e 15 44
e 15 65
e 15 97
e 15 51
e 15 56
e 15 93
e 16 37
e 16 72
e 16 91
e 16 71
e 16 73
e 16 25
e 17 61
e 17 70
e 17 86
e 18 55
e 18 36
e 18 45
e 18 92
e 18 72
e 18 53
e 18 88
e 18 69
e 19 77
e 19 32
e 19 91
e 19 25
e 19 73
e 20 74
e 20 48
e 20 85
e 20 81
e 20 84
e 21 60
e 21 40
e 21 29
e 21 80
e 22 34
e 22 88
e 22 43
e 22 83
e 22 44
e 22 30
e 23 24
e 23 42
e 23 41
e 23 40
e 23 29
e 23 47
e 24 54
e 24 42
e 24 47
e 24 67
e 25 73
e 25 77
e 26 27
e 26 55
e 26 78
e 26 91
e 26 32
e 27 92
e 27 76
e 27 36
e 27 94
e 27 55
e 28 95
e 28 34
e 28 43
e 28 99
e 28 38
e 29 40
e 29 80
e 29 79
e 29 47
e 30 83
e 30 44
e 30 87
e 30 65
e 31 77
e 31 81
e 31 84
e 32 77
e 32 91
e 33 39
e 33 38
e 33 40
e 33 60
e 34 95
e 34 43
e 35 51
e 35 56
e 35 90
e 35 46
e 35 63
e 36 92
e 36 55
e 37 72
e 37 53
e 37 71
e 37 69
e 38 54
e 38 95
e 38 99
e 38 39
e 39 42
e 39 54
e 39 41
e 40 41
e 40 60
e 41 42
e 42 54
e 43 99
e 43 44
e 44 99
e 44 51
e 45 49
e 45 55
e 45 72
e 46 93
e 46 56
e 46 52
e 46 98
e 46 63
e 47 79
e 47 64
e 47 82
e 47 67
e 48 66
e 48 74
e 48 85
e 49 55
e 49 72
e 49 91
e 50 82
e 50 64
e 50 89
e 51 99
e 51 56
e 52 93
e 52 98
e 52 78
e 53 72
e 53 69
e 54 95
e 55 91
e 56 93
e 57 83
e 57 87
e 57 88
e 57 75
e 57 92
e 58 97
e 58 75
e 58 94
e 58 92
e 58 76
e 59 68
e 59 70
e 61 86
e 62 66
e 62 96
e 62 85
e 63 90
e 63 98
e 64 80
e 64 79
e 64 90
e 64 82
e 64 89
e 65 87
e 65 75
e 65 97
e 66 68
e 66 96
e 66 85
e 67 82
e 67 89
e 67 70
e 68 90
e 68 89
e 69 71
e 69 88
e 72 91
e 73 91
e 74 81
e 75 87
e 75 97
e 75 92
e 76 92
e 76 94
e 78 98
e 79 80
e 80 90
e 81 84
e 82 89
e 83 88
e 83 87
e 85 96
e 85 86
e 88 92
e 89 90
e 93 97
e 93 94
e 94 97
